; benchmark generated from python API
(set-info :status unknown)
(declare-fun x_epoch () (_ BitVec 32))
(declare-fun y_epoch () (_ BitVec 32))
(declare-fun x_plus_epoch () (_ BitVec 32))
(declare-fun x_plus_month () (_ BitVec 32))
(declare-fun x_plus_year () (_ BitVec 32))
(declare-fun x_plus_day () (_ BitVec 32))
(assert
 (bvsle (_ bv4294930771 32) x_epoch))
(assert
 (bvsge (_ bv36523 32) x_epoch))
(assert
 (bvsle (_ bv4294930771 32) y_epoch))
(assert
 (bvsge (_ bv36523 32) y_epoch))
(assert
 (= x_epoch (_ bv7304 32)))
(assert
 (bvsle (_ bv4294930771 32) x_plus_epoch))
(assert
 (bvsge (_ bv36523 32) x_plus_epoch))
(assert
 (let (($x3631 (= x_plus_month (_ bv11 32))))
 (let (($x3774 (= x_plus_month (_ bv9 32))))
 (let (($x3540 (= x_plus_month (_ bv6 32))))
 (let (($x1963 (= x_plus_month (_ bv4 32))))
 (let ((?x3124 (ite (or $x1963 $x3540 $x3774 $x3631) (_ bv30 32) (_ bv31 32))))
 (let (($x3095 (and (= (bvsmod x_plus_year (_ bv4 32)) (_ bv0 32)) (and (distinct (bvsmod x_plus_year (_ bv100 32)) (_ bv0 32)) true))))
 (let (($x2846 (or $x3095 (= (bvsmod x_plus_year (_ bv400 32)) (_ bv0 32)))))
 (let (($x3000 (= x_plus_month (_ bv2 32))))
 (let (($x1455 (bvsle (_ bv1 32) x_plus_day)))
 (let (($x3017 (bvsle (_ bv1 32) x_plus_month)))
 (let (($x2684 (bvsle (_ bv1900 32) x_plus_year)))
 (and $x2684 (bvsge (_ bv2100 32) x_plus_year) $x3017 (bvsge (_ bv12 32) x_plus_month) $x1455 (bvsle x_plus_day (ite $x3000 (ite $x2846 (_ bv29 32) (_ bv28 32)) ?x3124)))))))))))))))
(assert
 (let (($x3095 (and (= (bvsmod x_plus_year (_ bv4 32)) (_ bv0 32)) (and (distinct (bvsmod x_plus_year (_ bv100 32)) (_ bv0 32)) true))))
 (let (($x2846 (or $x3095 (= (bvsmod x_plus_year (_ bv400 32)) (_ bv0 32)))))
 (let ((?x3362 (ite (= (_ bv2 32) x_plus_month) (ite $x2846 (_ bv31 32) (_ bv31 32)) (ite (= (_ bv1 32) x_plus_month) (ite $x2846 (_ bv0 32) (_ bv0 32)) (_ bv0 32)))))
 (let ((?x1897 (ite (= (_ bv4 32) x_plus_month) (ite $x2846 (_ bv91 32) (_ bv90 32)) (ite (= (_ bv3 32) x_plus_month) (ite $x2846 (_ bv60 32) (_ bv59 32)) ?x3362))))
 (let ((?x2115 (ite (= (_ bv6 32) x_plus_month) (ite $x2846 (_ bv152 32) (_ bv151 32)) (ite (= (_ bv5 32) x_plus_month) (ite $x2846 (_ bv121 32) (_ bv120 32)) ?x1897))))
 (let ((?x1801 (ite (= (_ bv8 32) x_plus_month) (ite $x2846 (_ bv213 32) (_ bv212 32)) (ite (= (_ bv7 32) x_plus_month) (ite $x2846 (_ bv182 32) (_ bv181 32)) ?x2115))))
 (let ((?x2760 (ite (= (_ bv10 32) x_plus_month) (ite $x2846 (_ bv274 32) (_ bv273 32)) (ite (= (_ bv9 32) x_plus_month) (ite $x2846 (_ bv244 32) (_ bv243 32)) ?x1801))))
 (let ((?x1446 (ite (= (_ bv12 32) x_plus_month) (ite $x2846 (_ bv335 32) (_ bv334 32)) (ite (= (_ bv11 32) x_plus_month) (ite $x2846 (_ bv305 32) (_ bv304 32)) ?x2760))))
 (let ((?x2229 (bvadd (bvmul (_ bv365 32) (bvsub x_plus_year (_ bv1 32))) (bvsdiv (bvsub x_plus_year (_ bv1 32)) (_ bv4 32)))))
 (let ((?x3813 (bvadd (bvsub ?x2229 (bvsdiv (bvsub x_plus_year (_ bv1 32)) (_ bv100 32))) (bvsdiv (bvsub x_plus_year (_ bv1 32)) (_ bv400 32)))))
 (= x_plus_epoch (bvsub (bvadd (bvadd ?x3813 ?x1446) (bvsub x_plus_day (_ bv1 32))) (_ bv730179 32))))))))))))))
(assert
 (let ((?x38534 (bvadd x_epoch (_ bv730179 32))))
 (let ((?x2630 (bvsmod ?x38534 (_ bv146097 32))))
 (let ((?x4324 (bvsdiv ?x2630 (_ bv36524 32))))
 (let ((?x4661 (ite (bvsle (_ bv4 32) ?x4324) (_ bv3 32) ?x4324)))
 (let ((?x4678 (bvsub ?x2630 (bvmul ?x4661 (_ bv36524 32)))))
 (let ((?x589 (bvsmod ?x4678 (_ bv1461 32))))
 (let ((?x1294 (bvsdiv ?x589 (_ bv365 32))))
 (let ((?x40515 (ite (bvsle (_ bv4 32) ?x1294) (_ bv3 32) ?x1294)))
 (let ((?x3519 (bvadd (bvadd (bvmul (bvsdiv ?x38534 (_ bv146097 32)) (_ bv400 32)) (bvmul ?x4661 (_ bv100 32))) (bvmul (bvsdiv ?x4678 (_ bv1461 32)) (_ bv4 32)))))
 (let ((?x51043 (bvadd (bvadd ?x3519 ?x40515) (_ bv1 32))))
 (let (($x3698 (or (and (= (bvsmod ?x51043 (_ bv4 32)) (_ bv0 32)) (and (distinct (bvsmod ?x51043 (_ bv100 32)) (_ bv0 32)) true)) (= (bvsmod ?x51043 (_ bv400 32)) (_ bv0 32)))))
 (let ((?x49372 (bvsub ?x589 (bvmul ?x40515 (_ bv365 32)))))
 (let ((?x42689 (ite $x3698 (_ bv31 32) (_ bv31 32))))
 (let (($x3604 (bvsge ?x49372 ?x42689)))
 (let ((?x2598 (ite $x3604 (bvadd (bvsub ?x49372 ?x42689) (_ bv1 32)) (bvadd (bvsub ?x49372 (ite $x3698 (_ bv0 32) (_ bv0 32))) (_ bv1 32)))))
 (let ((?x1479 (ite $x3698 (_ bv60 32) (_ bv59 32))))
 (let (($x2217 (bvsge ?x49372 ?x1479)))
 (let ((?x2842 (ite $x3698 (_ bv91 32) (_ bv90 32))))
 (let (($x2102 (bvsge ?x49372 ?x2842)))
 (let ((?x2252 (ite $x2102 (bvadd (bvsub ?x49372 ?x2842) (_ bv1 32)) (ite $x2217 (bvadd (bvsub ?x49372 ?x1479) (_ bv1 32)) ?x2598))))
 (let ((?x5872 (ite $x3698 (_ bv121 32) (_ bv120 32))))
 (let (($x3525 (bvsge ?x49372 ?x5872)))
 (let ((?x4776 (ite $x3698 (_ bv152 32) (_ bv151 32))))
 (let (($x1713 (bvsge ?x49372 ?x4776)))
 (let ((?x1689 (ite $x1713 (bvadd (bvsub ?x49372 ?x4776) (_ bv1 32)) (ite $x3525 (bvadd (bvsub ?x49372 ?x5872) (_ bv1 32)) ?x2252))))
 (let ((?x4238 (ite $x3698 (_ bv182 32) (_ bv181 32))))
 (let (($x763 (bvsge ?x49372 ?x4238)))
 (let ((?x38093 (ite $x3698 (_ bv213 32) (_ bv212 32))))
 (let (($x412 (bvsge ?x49372 ?x38093)))
 (let ((?x1226 (ite $x412 (bvadd (bvsub ?x49372 ?x38093) (_ bv1 32)) (ite $x763 (bvadd (bvsub ?x49372 ?x4238) (_ bv1 32)) ?x1689))))
 (let ((?x38040 (ite $x3698 (_ bv244 32) (_ bv243 32))))
 (let (($x578 (bvsge ?x49372 ?x38040)))
 (let ((?x1016 (ite $x3698 (_ bv274 32) (_ bv273 32))))
 (let (($x2125 (bvsge ?x49372 ?x1016)))
 (let ((?x1751 (ite $x2125 (bvadd (bvsub ?x49372 ?x1016) (_ bv1 32)) (ite $x578 (bvadd (bvsub ?x49372 ?x38040) (_ bv1 32)) ?x1226))))
 (let ((?x1414 (ite $x3698 (_ bv305 32) (_ bv304 32))))
 (let (($x1691 (bvsge ?x49372 ?x1414)))
 (let ((?x3275 (ite $x3698 (_ bv335 32) (_ bv334 32))))
 (let (($x2413 (bvsge ?x49372 ?x3275)))
 (let ((?x2270 (ite $x2413 (bvadd (bvsub ?x49372 ?x3275) (_ bv1 32)) (ite $x1691 (bvadd (bvsub ?x49372 ?x1414) (_ bv1 32)) ?x1751))))
 (let ((?x5035 (bvadd (bvmul (_ bv1 32) (_ bv12 32)) (_ bv0 32))))
 (let ((?x634 (ite $x1713 (_ bv6 32) (ite $x3525 (_ bv5 32) (ite $x2102 (_ bv4 32) (ite $x2217 (_ bv3 32) (ite $x3604 (_ bv2 32) (_ bv1 32))))))))
 (let ((?x1635 (ite $x1691 (_ bv11 32) (ite $x2125 (_ bv10 32) (ite $x578 (_ bv9 32) (ite $x412 (_ bv8 32) (ite $x763 (_ bv7 32) ?x634)))))))
 (let ((?x3109 (ite $x2413 (_ bv12 32) ?x1635)))
 (let ((?x4405 (bvadd ?x3109 ?x5035)))
 (let ((?x512 (bvsub (ite (bvuge ?x4405 (_ bv2147483648 32)) (bvsub ?x4405 (_ bv0 32)) ?x4405) (_ bv1 32))))
 (let ((?x931 (bvsmod ?x512 (_ bv12 32))))
 (let ((?x57700 (bvadd ?x931 (_ bv1 32))))
 (let ((?x4011 (ite (or (= ?x57700 (_ bv4 32)) (= ?x57700 (_ bv6 32)) (= ?x57700 (_ bv9 32)) (= ?x57700 (_ bv11 32))) (_ bv30 32) (_ bv31 32))))
 (let ((?x4199 (bvsdiv ?x512 (_ bv12 32))))
 (let ((?x533 (ite (and (bvuge ?x512 (_ bv2147483648 32)) (and (distinct (_ bv0 32) ?x931) true)) (bvsub ?x4199 (_ bv1 32)) ?x4199)))
 (let ((?x1569 (bvadd (_ bv0 32) ?x533)))
 (let ((?x5886 (bvadd ?x51043 ?x1569)))
 (let (($x3725 (or (and (= (bvsmod ?x5886 (_ bv4 32)) (_ bv0 32)) (and (distinct (bvsmod ?x5886 (_ bv100 32)) (_ bv0 32)) true)) (= (bvsmod ?x5886 (_ bv400 32)) (_ bv0 32)))))
 (let ((?x623 (ite (= ?x57700 (_ bv2 32)) (ite $x3725 (_ bv29 32) (_ bv28 32)) ?x4011)))
 (let (($x2430 (bvsgt (_ bv1 32) ?x2270)))
 (let ((?x10104 (ite $x2430 (_ bv1 32) (ite (bvsgt ?x2270 ?x623) ?x623 ?x2270))))
 (let ((?x5074 (ite (bvsgt (_ bv1 32) ?x10104) (_ bv1 32) (ite (bvsgt ?x10104 ?x623) ?x623 ?x10104))))
 (let ((?x4783 (ite (= (_ bv2 32) ?x57700) (ite $x3725 (_ bv31 32) (_ bv31 32)) (ite (= (_ bv1 32) ?x57700) (ite $x3725 (_ bv0 32) (_ bv0 32)) (_ bv0 32)))))
 (let ((?x49232 (ite (= (_ bv4 32) ?x57700) (ite $x3725 (_ bv91 32) (_ bv90 32)) (ite (= (_ bv3 32) ?x57700) (ite $x3725 (_ bv60 32) (_ bv59 32)) ?x4783))))
 (let ((?x7630 (ite (= (_ bv6 32) ?x57700) (ite $x3725 (_ bv152 32) (_ bv151 32)) (ite (= (_ bv5 32) ?x57700) (ite $x3725 (_ bv121 32) (_ bv120 32)) ?x49232))))
 (let ((?x671 (ite (= (_ bv8 32) ?x57700) (ite $x3725 (_ bv213 32) (_ bv212 32)) (ite (= (_ bv7 32) ?x57700) (ite $x3725 (_ bv182 32) (_ bv181 32)) ?x7630))))
 (let ((?x9690 (ite (= (_ bv10 32) ?x57700) (ite $x3725 (_ bv274 32) (_ bv273 32)) (ite (= (_ bv9 32) ?x57700) (ite $x3725 (_ bv244 32) (_ bv243 32)) ?x671))))
 (let ((?x1750 (ite (= (_ bv12 32) ?x57700) (ite $x3725 (_ bv335 32) (_ bv334 32)) (ite (= (_ bv11 32) ?x57700) (ite $x3725 (_ bv305 32) (_ bv304 32)) ?x9690))))
 (let ((?x5897 (bvadd (bvmul (_ bv365 32) (bvsub ?x5886 (_ bv1 32))) (bvsdiv (bvsub ?x5886 (_ bv1 32)) (_ bv4 32)))))
 (let ((?x2107 (bvadd (bvsub ?x5897 (bvsdiv (bvsub ?x5886 (_ bv1 32)) (_ bv100 32))) (bvsdiv (bvsub ?x5886 (_ bv1 32)) (_ bv400 32)))))
 (let ((?x2002 (bvadd (bvadd (bvsub (bvadd (bvadd ?x2107 ?x1750) (bvsub ?x5074 (_ bv1 32))) (_ bv730179 32)) (_ bv0 32)) (_ bv730179 32))))
 (let ((?x3302 (bvsmod ?x2002 (_ bv146097 32))))
 (let ((?x5757 (bvsdiv ?x3302 (_ bv36524 32))))
 (let ((?x72677 (ite (bvsle (_ bv4 32) ?x5757) (_ bv3 32) ?x5757)))
 (let ((?x72601 (bvsub ?x3302 (bvmul ?x72677 (_ bv36524 32)))))
 (let ((?x72470 (bvsmod ?x72601 (_ bv1461 32))))
 (let ((?x72399 (bvsdiv ?x72470 (_ bv365 32))))
 (let ((?x72414 (ite (bvsle (_ bv4 32) ?x72399) (_ bv3 32) ?x72399)))
 (let ((?x70281 (bvadd (bvadd (bvmul (bvsdiv ?x2002 (_ bv146097 32)) (_ bv400 32)) (bvmul ?x72677 (_ bv100 32))) (bvmul (bvsdiv ?x72601 (_ bv1461 32)) (_ bv4 32)))))
 (let ((?x61556 (bvadd (bvadd ?x70281 ?x72414) (_ bv1 32))))
 (let (($x3096 (= (_ bv0 32) (_ bv0 32))))
 (let ((?x2847 (ite $x3096 ?x5886 ?x61556)))
 (= x_plus_year ?x2847))))))))))))))))))))))))))))))))))))))))))))))))))))))))))))))))))))))))))))))))
(assert
 (let ((?x38534 (bvadd x_epoch (_ bv730179 32))))
 (let ((?x2630 (bvsmod ?x38534 (_ bv146097 32))))
 (let ((?x4324 (bvsdiv ?x2630 (_ bv36524 32))))
 (let ((?x4661 (ite (bvsle (_ bv4 32) ?x4324) (_ bv3 32) ?x4324)))
 (let ((?x4678 (bvsub ?x2630 (bvmul ?x4661 (_ bv36524 32)))))
 (let ((?x589 (bvsmod ?x4678 (_ bv1461 32))))
 (let ((?x1294 (bvsdiv ?x589 (_ bv365 32))))
 (let ((?x40515 (ite (bvsle (_ bv4 32) ?x1294) (_ bv3 32) ?x1294)))
 (let ((?x3519 (bvadd (bvadd (bvmul (bvsdiv ?x38534 (_ bv146097 32)) (_ bv400 32)) (bvmul ?x4661 (_ bv100 32))) (bvmul (bvsdiv ?x4678 (_ bv1461 32)) (_ bv4 32)))))
 (let ((?x51043 (bvadd (bvadd ?x3519 ?x40515) (_ bv1 32))))
 (let (($x3698 (or (and (= (bvsmod ?x51043 (_ bv4 32)) (_ bv0 32)) (and (distinct (bvsmod ?x51043 (_ bv100 32)) (_ bv0 32)) true)) (= (bvsmod ?x51043 (_ bv400 32)) (_ bv0 32)))))
 (let ((?x49372 (bvsub ?x589 (bvmul ?x40515 (_ bv365 32)))))
 (let ((?x42689 (ite $x3698 (_ bv31 32) (_ bv31 32))))
 (let (($x3604 (bvsge ?x49372 ?x42689)))
 (let ((?x2598 (ite $x3604 (bvadd (bvsub ?x49372 ?x42689) (_ bv1 32)) (bvadd (bvsub ?x49372 (ite $x3698 (_ bv0 32) (_ bv0 32))) (_ bv1 32)))))
 (let ((?x1479 (ite $x3698 (_ bv60 32) (_ bv59 32))))
 (let (($x2217 (bvsge ?x49372 ?x1479)))
 (let ((?x2842 (ite $x3698 (_ bv91 32) (_ bv90 32))))
 (let (($x2102 (bvsge ?x49372 ?x2842)))
 (let ((?x2252 (ite $x2102 (bvadd (bvsub ?x49372 ?x2842) (_ bv1 32)) (ite $x2217 (bvadd (bvsub ?x49372 ?x1479) (_ bv1 32)) ?x2598))))
 (let ((?x5872 (ite $x3698 (_ bv121 32) (_ bv120 32))))
 (let (($x3525 (bvsge ?x49372 ?x5872)))
 (let ((?x4776 (ite $x3698 (_ bv152 32) (_ bv151 32))))
 (let (($x1713 (bvsge ?x49372 ?x4776)))
 (let ((?x1689 (ite $x1713 (bvadd (bvsub ?x49372 ?x4776) (_ bv1 32)) (ite $x3525 (bvadd (bvsub ?x49372 ?x5872) (_ bv1 32)) ?x2252))))
 (let ((?x4238 (ite $x3698 (_ bv182 32) (_ bv181 32))))
 (let (($x763 (bvsge ?x49372 ?x4238)))
 (let ((?x38093 (ite $x3698 (_ bv213 32) (_ bv212 32))))
 (let (($x412 (bvsge ?x49372 ?x38093)))
 (let ((?x1226 (ite $x412 (bvadd (bvsub ?x49372 ?x38093) (_ bv1 32)) (ite $x763 (bvadd (bvsub ?x49372 ?x4238) (_ bv1 32)) ?x1689))))
 (let ((?x38040 (ite $x3698 (_ bv244 32) (_ bv243 32))))
 (let (($x578 (bvsge ?x49372 ?x38040)))
 (let ((?x1016 (ite $x3698 (_ bv274 32) (_ bv273 32))))
 (let (($x2125 (bvsge ?x49372 ?x1016)))
 (let ((?x1751 (ite $x2125 (bvadd (bvsub ?x49372 ?x1016) (_ bv1 32)) (ite $x578 (bvadd (bvsub ?x49372 ?x38040) (_ bv1 32)) ?x1226))))
 (let ((?x1414 (ite $x3698 (_ bv305 32) (_ bv304 32))))
 (let (($x1691 (bvsge ?x49372 ?x1414)))
 (let ((?x3275 (ite $x3698 (_ bv335 32) (_ bv334 32))))
 (let (($x2413 (bvsge ?x49372 ?x3275)))
 (let ((?x2270 (ite $x2413 (bvadd (bvsub ?x49372 ?x3275) (_ bv1 32)) (ite $x1691 (bvadd (bvsub ?x49372 ?x1414) (_ bv1 32)) ?x1751))))
 (let ((?x5035 (bvadd (bvmul (_ bv1 32) (_ bv12 32)) (_ bv0 32))))
 (let ((?x634 (ite $x1713 (_ bv6 32) (ite $x3525 (_ bv5 32) (ite $x2102 (_ bv4 32) (ite $x2217 (_ bv3 32) (ite $x3604 (_ bv2 32) (_ bv1 32))))))))
 (let ((?x1635 (ite $x1691 (_ bv11 32) (ite $x2125 (_ bv10 32) (ite $x578 (_ bv9 32) (ite $x412 (_ bv8 32) (ite $x763 (_ bv7 32) ?x634)))))))
 (let ((?x3109 (ite $x2413 (_ bv12 32) ?x1635)))
 (let ((?x4405 (bvadd ?x3109 ?x5035)))
 (let ((?x512 (bvsub (ite (bvuge ?x4405 (_ bv2147483648 32)) (bvsub ?x4405 (_ bv0 32)) ?x4405) (_ bv1 32))))
 (let ((?x931 (bvsmod ?x512 (_ bv12 32))))
 (let ((?x57700 (bvadd ?x931 (_ bv1 32))))
 (let ((?x4011 (ite (or (= ?x57700 (_ bv4 32)) (= ?x57700 (_ bv6 32)) (= ?x57700 (_ bv9 32)) (= ?x57700 (_ bv11 32))) (_ bv30 32) (_ bv31 32))))
 (let ((?x4199 (bvsdiv ?x512 (_ bv12 32))))
 (let ((?x533 (ite (and (bvuge ?x512 (_ bv2147483648 32)) (and (distinct (_ bv0 32) ?x931) true)) (bvsub ?x4199 (_ bv1 32)) ?x4199)))
 (let ((?x1569 (bvadd (_ bv0 32) ?x533)))
 (let ((?x5886 (bvadd ?x51043 ?x1569)))
 (let (($x3725 (or (and (= (bvsmod ?x5886 (_ bv4 32)) (_ bv0 32)) (and (distinct (bvsmod ?x5886 (_ bv100 32)) (_ bv0 32)) true)) (= (bvsmod ?x5886 (_ bv400 32)) (_ bv0 32)))))
 (let ((?x623 (ite (= ?x57700 (_ bv2 32)) (ite $x3725 (_ bv29 32) (_ bv28 32)) ?x4011)))
 (let (($x2430 (bvsgt (_ bv1 32) ?x2270)))
 (let ((?x10104 (ite $x2430 (_ bv1 32) (ite (bvsgt ?x2270 ?x623) ?x623 ?x2270))))
 (let ((?x5074 (ite (bvsgt (_ bv1 32) ?x10104) (_ bv1 32) (ite (bvsgt ?x10104 ?x623) ?x623 ?x10104))))
 (let ((?x4783 (ite (= (_ bv2 32) ?x57700) (ite $x3725 (_ bv31 32) (_ bv31 32)) (ite (= (_ bv1 32) ?x57700) (ite $x3725 (_ bv0 32) (_ bv0 32)) (_ bv0 32)))))
 (let ((?x49232 (ite (= (_ bv4 32) ?x57700) (ite $x3725 (_ bv91 32) (_ bv90 32)) (ite (= (_ bv3 32) ?x57700) (ite $x3725 (_ bv60 32) (_ bv59 32)) ?x4783))))
 (let ((?x7630 (ite (= (_ bv6 32) ?x57700) (ite $x3725 (_ bv152 32) (_ bv151 32)) (ite (= (_ bv5 32) ?x57700) (ite $x3725 (_ bv121 32) (_ bv120 32)) ?x49232))))
 (let ((?x671 (ite (= (_ bv8 32) ?x57700) (ite $x3725 (_ bv213 32) (_ bv212 32)) (ite (= (_ bv7 32) ?x57700) (ite $x3725 (_ bv182 32) (_ bv181 32)) ?x7630))))
 (let ((?x9690 (ite (= (_ bv10 32) ?x57700) (ite $x3725 (_ bv274 32) (_ bv273 32)) (ite (= (_ bv9 32) ?x57700) (ite $x3725 (_ bv244 32) (_ bv243 32)) ?x671))))
 (let ((?x1750 (ite (= (_ bv12 32) ?x57700) (ite $x3725 (_ bv335 32) (_ bv334 32)) (ite (= (_ bv11 32) ?x57700) (ite $x3725 (_ bv305 32) (_ bv304 32)) ?x9690))))
 (let ((?x5897 (bvadd (bvmul (_ bv365 32) (bvsub ?x5886 (_ bv1 32))) (bvsdiv (bvsub ?x5886 (_ bv1 32)) (_ bv4 32)))))
 (let ((?x2107 (bvadd (bvsub ?x5897 (bvsdiv (bvsub ?x5886 (_ bv1 32)) (_ bv100 32))) (bvsdiv (bvsub ?x5886 (_ bv1 32)) (_ bv400 32)))))
 (let ((?x2002 (bvadd (bvadd (bvsub (bvadd (bvadd ?x2107 ?x1750) (bvsub ?x5074 (_ bv1 32))) (_ bv730179 32)) (_ bv0 32)) (_ bv730179 32))))
 (let ((?x3302 (bvsmod ?x2002 (_ bv146097 32))))
 (let ((?x5757 (bvsdiv ?x3302 (_ bv36524 32))))
 (let ((?x72677 (ite (bvsle (_ bv4 32) ?x5757) (_ bv3 32) ?x5757)))
 (let ((?x72601 (bvsub ?x3302 (bvmul ?x72677 (_ bv36524 32)))))
 (let ((?x72470 (bvsmod ?x72601 (_ bv1461 32))))
 (let ((?x72399 (bvsdiv ?x72470 (_ bv365 32))))
 (let ((?x72414 (ite (bvsle (_ bv4 32) ?x72399) (_ bv3 32) ?x72399)))
 (let ((?x70281 (bvadd (bvadd (bvmul (bvsdiv ?x2002 (_ bv146097 32)) (_ bv400 32)) (bvmul ?x72677 (_ bv100 32))) (bvmul (bvsdiv ?x72601 (_ bv1461 32)) (_ bv4 32)))))
 (let ((?x61556 (bvadd (bvadd ?x70281 ?x72414) (_ bv1 32))))
 (let (($x24709 (or (and (= (bvsmod ?x61556 (_ bv4 32)) (_ bv0 32)) (and (distinct (bvsmod ?x61556 (_ bv100 32)) (_ bv0 32)) true)) (= (bvsmod ?x61556 (_ bv400 32)) (_ bv0 32)))))
 (let ((?x85281 (ite $x24709 (_ bv31 32) (_ bv31 32))))
 (let ((?x70262 (bvsub ?x72470 (bvmul ?x72414 (_ bv365 32)))))
 (let (($x40604 (bvsge ?x70262 ?x85281)))
 (let ((?x83623 (ite $x24709 (_ bv60 32) (_ bv59 32))))
 (let (($x5204 (bvsge ?x70262 ?x83623)))
 (let ((?x24421 (ite $x24709 (_ bv91 32) (_ bv90 32))))
 (let (($x80202 (bvsge ?x70262 ?x24421)))
 (let ((?x72785 (ite $x24709 (_ bv121 32) (_ bv120 32))))
 (let (($x3691 (bvsge ?x70262 ?x72785)))
 (let ((?x72701 (ite $x24709 (_ bv152 32) (_ bv151 32))))
 (let (($x75671 (bvsge ?x70262 ?x72701)))
 (let ((?x74565 (ite $x75671 (_ bv6 32) (ite $x3691 (_ bv5 32) (ite $x80202 (_ bv4 32) (ite $x5204 (_ bv3 32) (ite $x40604 (_ bv2 32) (_ bv1 32))))))))
 (let ((?x72750 (ite $x24709 (_ bv182 32) (_ bv181 32))))
 (let (($x83604 (bvsge ?x70262 ?x72750)))
 (let ((?x77794 (ite $x24709 (_ bv213 32) (_ bv212 32))))
 (let (($x80654 (bvsge ?x70262 ?x77794)))
 (let ((?x72779 (ite $x24709 (_ bv244 32) (_ bv243 32))))
 (let (($x22152 (bvsge ?x70262 ?x72779)))
 (let ((?x72656 (ite $x24709 (_ bv274 32) (_ bv273 32))))
 (let (($x38155 (bvsge ?x70262 ?x72656)))
 (let ((?x69192 (ite $x24709 (_ bv305 32) (_ bv304 32))))
 (let (($x24315 (bvsge ?x70262 ?x69192)))
 (let ((?x72320 (ite $x24315 (_ bv11 32) (ite $x38155 (_ bv10 32) (ite $x22152 (_ bv9 32) (ite $x80654 (_ bv8 32) (ite $x83604 (_ bv7 32) ?x74565)))))))
 (let ((?x69190 (ite $x24709 (_ bv335 32) (_ bv334 32))))
 (let (($x71560 (bvsge ?x70262 ?x69190)))
 (let (($x3096 (= (_ bv0 32) (_ bv0 32))))
 (let ((?x60520 (ite $x3096 ?x57700 (ite $x71560 (_ bv12 32) ?x72320))))
 (= x_plus_month ?x60520))))))))))))))))))))))))))))))))))))))))))))))))))))))))))))))))))))))))))))))))))))))))))))))))))))))))))
(assert
 (let ((?x38534 (bvadd x_epoch (_ bv730179 32))))
 (let ((?x2630 (bvsmod ?x38534 (_ bv146097 32))))
 (let ((?x4324 (bvsdiv ?x2630 (_ bv36524 32))))
 (let ((?x4661 (ite (bvsle (_ bv4 32) ?x4324) (_ bv3 32) ?x4324)))
 (let ((?x4678 (bvsub ?x2630 (bvmul ?x4661 (_ bv36524 32)))))
 (let ((?x589 (bvsmod ?x4678 (_ bv1461 32))))
 (let ((?x1294 (bvsdiv ?x589 (_ bv365 32))))
 (let ((?x40515 (ite (bvsle (_ bv4 32) ?x1294) (_ bv3 32) ?x1294)))
 (let ((?x3519 (bvadd (bvadd (bvmul (bvsdiv ?x38534 (_ bv146097 32)) (_ bv400 32)) (bvmul ?x4661 (_ bv100 32))) (bvmul (bvsdiv ?x4678 (_ bv1461 32)) (_ bv4 32)))))
 (let ((?x51043 (bvadd (bvadd ?x3519 ?x40515) (_ bv1 32))))
 (let (($x3698 (or (and (= (bvsmod ?x51043 (_ bv4 32)) (_ bv0 32)) (and (distinct (bvsmod ?x51043 (_ bv100 32)) (_ bv0 32)) true)) (= (bvsmod ?x51043 (_ bv400 32)) (_ bv0 32)))))
 (let ((?x49372 (bvsub ?x589 (bvmul ?x40515 (_ bv365 32)))))
 (let ((?x42689 (ite $x3698 (_ bv31 32) (_ bv31 32))))
 (let (($x3604 (bvsge ?x49372 ?x42689)))
 (let ((?x2598 (ite $x3604 (bvadd (bvsub ?x49372 ?x42689) (_ bv1 32)) (bvadd (bvsub ?x49372 (ite $x3698 (_ bv0 32) (_ bv0 32))) (_ bv1 32)))))
 (let ((?x1479 (ite $x3698 (_ bv60 32) (_ bv59 32))))
 (let (($x2217 (bvsge ?x49372 ?x1479)))
 (let ((?x2842 (ite $x3698 (_ bv91 32) (_ bv90 32))))
 (let (($x2102 (bvsge ?x49372 ?x2842)))
 (let ((?x2252 (ite $x2102 (bvadd (bvsub ?x49372 ?x2842) (_ bv1 32)) (ite $x2217 (bvadd (bvsub ?x49372 ?x1479) (_ bv1 32)) ?x2598))))
 (let ((?x5872 (ite $x3698 (_ bv121 32) (_ bv120 32))))
 (let (($x3525 (bvsge ?x49372 ?x5872)))
 (let ((?x4776 (ite $x3698 (_ bv152 32) (_ bv151 32))))
 (let (($x1713 (bvsge ?x49372 ?x4776)))
 (let ((?x1689 (ite $x1713 (bvadd (bvsub ?x49372 ?x4776) (_ bv1 32)) (ite $x3525 (bvadd (bvsub ?x49372 ?x5872) (_ bv1 32)) ?x2252))))
 (let ((?x4238 (ite $x3698 (_ bv182 32) (_ bv181 32))))
 (let (($x763 (bvsge ?x49372 ?x4238)))
 (let ((?x38093 (ite $x3698 (_ bv213 32) (_ bv212 32))))
 (let (($x412 (bvsge ?x49372 ?x38093)))
 (let ((?x1226 (ite $x412 (bvadd (bvsub ?x49372 ?x38093) (_ bv1 32)) (ite $x763 (bvadd (bvsub ?x49372 ?x4238) (_ bv1 32)) ?x1689))))
 (let ((?x38040 (ite $x3698 (_ bv244 32) (_ bv243 32))))
 (let (($x578 (bvsge ?x49372 ?x38040)))
 (let ((?x1016 (ite $x3698 (_ bv274 32) (_ bv273 32))))
 (let (($x2125 (bvsge ?x49372 ?x1016)))
 (let ((?x1751 (ite $x2125 (bvadd (bvsub ?x49372 ?x1016) (_ bv1 32)) (ite $x578 (bvadd (bvsub ?x49372 ?x38040) (_ bv1 32)) ?x1226))))
 (let ((?x1414 (ite $x3698 (_ bv305 32) (_ bv304 32))))
 (let (($x1691 (bvsge ?x49372 ?x1414)))
 (let ((?x3275 (ite $x3698 (_ bv335 32) (_ bv334 32))))
 (let (($x2413 (bvsge ?x49372 ?x3275)))
 (let ((?x2270 (ite $x2413 (bvadd (bvsub ?x49372 ?x3275) (_ bv1 32)) (ite $x1691 (bvadd (bvsub ?x49372 ?x1414) (_ bv1 32)) ?x1751))))
 (let ((?x5035 (bvadd (bvmul (_ bv1 32) (_ bv12 32)) (_ bv0 32))))
 (let ((?x634 (ite $x1713 (_ bv6 32) (ite $x3525 (_ bv5 32) (ite $x2102 (_ bv4 32) (ite $x2217 (_ bv3 32) (ite $x3604 (_ bv2 32) (_ bv1 32))))))))
 (let ((?x1635 (ite $x1691 (_ bv11 32) (ite $x2125 (_ bv10 32) (ite $x578 (_ bv9 32) (ite $x412 (_ bv8 32) (ite $x763 (_ bv7 32) ?x634)))))))
 (let ((?x3109 (ite $x2413 (_ bv12 32) ?x1635)))
 (let ((?x4405 (bvadd ?x3109 ?x5035)))
 (let ((?x512 (bvsub (ite (bvuge ?x4405 (_ bv2147483648 32)) (bvsub ?x4405 (_ bv0 32)) ?x4405) (_ bv1 32))))
 (let ((?x931 (bvsmod ?x512 (_ bv12 32))))
 (let ((?x57700 (bvadd ?x931 (_ bv1 32))))
 (let ((?x4011 (ite (or (= ?x57700 (_ bv4 32)) (= ?x57700 (_ bv6 32)) (= ?x57700 (_ bv9 32)) (= ?x57700 (_ bv11 32))) (_ bv30 32) (_ bv31 32))))
 (let ((?x4199 (bvsdiv ?x512 (_ bv12 32))))
 (let ((?x533 (ite (and (bvuge ?x512 (_ bv2147483648 32)) (and (distinct (_ bv0 32) ?x931) true)) (bvsub ?x4199 (_ bv1 32)) ?x4199)))
 (let ((?x1569 (bvadd (_ bv0 32) ?x533)))
 (let ((?x5886 (bvadd ?x51043 ?x1569)))
 (let (($x3725 (or (and (= (bvsmod ?x5886 (_ bv4 32)) (_ bv0 32)) (and (distinct (bvsmod ?x5886 (_ bv100 32)) (_ bv0 32)) true)) (= (bvsmod ?x5886 (_ bv400 32)) (_ bv0 32)))))
 (let ((?x623 (ite (= ?x57700 (_ bv2 32)) (ite $x3725 (_ bv29 32) (_ bv28 32)) ?x4011)))
 (let (($x2430 (bvsgt (_ bv1 32) ?x2270)))
 (let ((?x10104 (ite $x2430 (_ bv1 32) (ite (bvsgt ?x2270 ?x623) ?x623 ?x2270))))
 (let ((?x5074 (ite (bvsgt (_ bv1 32) ?x10104) (_ bv1 32) (ite (bvsgt ?x10104 ?x623) ?x623 ?x10104))))
 (let ((?x4783 (ite (= (_ bv2 32) ?x57700) (ite $x3725 (_ bv31 32) (_ bv31 32)) (ite (= (_ bv1 32) ?x57700) (ite $x3725 (_ bv0 32) (_ bv0 32)) (_ bv0 32)))))
 (let ((?x49232 (ite (= (_ bv4 32) ?x57700) (ite $x3725 (_ bv91 32) (_ bv90 32)) (ite (= (_ bv3 32) ?x57700) (ite $x3725 (_ bv60 32) (_ bv59 32)) ?x4783))))
 (let ((?x7630 (ite (= (_ bv6 32) ?x57700) (ite $x3725 (_ bv152 32) (_ bv151 32)) (ite (= (_ bv5 32) ?x57700) (ite $x3725 (_ bv121 32) (_ bv120 32)) ?x49232))))
 (let ((?x671 (ite (= (_ bv8 32) ?x57700) (ite $x3725 (_ bv213 32) (_ bv212 32)) (ite (= (_ bv7 32) ?x57700) (ite $x3725 (_ bv182 32) (_ bv181 32)) ?x7630))))
 (let ((?x9690 (ite (= (_ bv10 32) ?x57700) (ite $x3725 (_ bv274 32) (_ bv273 32)) (ite (= (_ bv9 32) ?x57700) (ite $x3725 (_ bv244 32) (_ bv243 32)) ?x671))))
 (let ((?x1750 (ite (= (_ bv12 32) ?x57700) (ite $x3725 (_ bv335 32) (_ bv334 32)) (ite (= (_ bv11 32) ?x57700) (ite $x3725 (_ bv305 32) (_ bv304 32)) ?x9690))))
 (let ((?x5897 (bvadd (bvmul (_ bv365 32) (bvsub ?x5886 (_ bv1 32))) (bvsdiv (bvsub ?x5886 (_ bv1 32)) (_ bv4 32)))))
 (let ((?x2107 (bvadd (bvsub ?x5897 (bvsdiv (bvsub ?x5886 (_ bv1 32)) (_ bv100 32))) (bvsdiv (bvsub ?x5886 (_ bv1 32)) (_ bv400 32)))))
 (let ((?x2002 (bvadd (bvadd (bvsub (bvadd (bvadd ?x2107 ?x1750) (bvsub ?x5074 (_ bv1 32))) (_ bv730179 32)) (_ bv0 32)) (_ bv730179 32))))
 (let ((?x3302 (bvsmod ?x2002 (_ bv146097 32))))
 (let ((?x5757 (bvsdiv ?x3302 (_ bv36524 32))))
 (let ((?x72677 (ite (bvsle (_ bv4 32) ?x5757) (_ bv3 32) ?x5757)))
 (let ((?x72601 (bvsub ?x3302 (bvmul ?x72677 (_ bv36524 32)))))
 (let ((?x72470 (bvsmod ?x72601 (_ bv1461 32))))
 (let ((?x72399 (bvsdiv ?x72470 (_ bv365 32))))
 (let ((?x72414 (ite (bvsle (_ bv4 32) ?x72399) (_ bv3 32) ?x72399)))
 (let ((?x70281 (bvadd (bvadd (bvmul (bvsdiv ?x2002 (_ bv146097 32)) (_ bv400 32)) (bvmul ?x72677 (_ bv100 32))) (bvmul (bvsdiv ?x72601 (_ bv1461 32)) (_ bv4 32)))))
 (let ((?x61556 (bvadd (bvadd ?x70281 ?x72414) (_ bv1 32))))
 (let (($x24709 (or (and (= (bvsmod ?x61556 (_ bv4 32)) (_ bv0 32)) (and (distinct (bvsmod ?x61556 (_ bv100 32)) (_ bv0 32)) true)) (= (bvsmod ?x61556 (_ bv400 32)) (_ bv0 32)))))
 (let ((?x70262 (bvsub ?x72470 (bvmul ?x72414 (_ bv365 32)))))
 (let ((?x85281 (ite $x24709 (_ bv31 32) (_ bv31 32))))
 (let (($x40604 (bvsge ?x70262 ?x85281)))
 (let ((?x72726 (ite $x40604 (bvadd (bvsub ?x70262 ?x85281) (_ bv1 32)) (bvadd (bvsub ?x70262 (ite $x24709 (_ bv0 32) (_ bv0 32))) (_ bv1 32)))))
 (let ((?x83623 (ite $x24709 (_ bv60 32) (_ bv59 32))))
 (let (($x5204 (bvsge ?x70262 ?x83623)))
 (let ((?x24421 (ite $x24709 (_ bv91 32) (_ bv90 32))))
 (let (($x80202 (bvsge ?x70262 ?x24421)))
 (let ((?x72756 (ite $x80202 (bvadd (bvsub ?x70262 ?x24421) (_ bv1 32)) (ite $x5204 (bvadd (bvsub ?x70262 ?x83623) (_ bv1 32)) ?x72726))))
 (let ((?x72785 (ite $x24709 (_ bv121 32) (_ bv120 32))))
 (let (($x3691 (bvsge ?x70262 ?x72785)))
 (let ((?x72701 (ite $x24709 (_ bv152 32) (_ bv151 32))))
 (let (($x75671 (bvsge ?x70262 ?x72701)))
 (let ((?x41007 (ite $x75671 (bvadd (bvsub ?x70262 ?x72701) (_ bv1 32)) (ite $x3691 (bvadd (bvsub ?x70262 ?x72785) (_ bv1 32)) ?x72756))))
 (let ((?x72750 (ite $x24709 (_ bv182 32) (_ bv181 32))))
 (let (($x83604 (bvsge ?x70262 ?x72750)))
 (let ((?x77794 (ite $x24709 (_ bv213 32) (_ bv212 32))))
 (let (($x80654 (bvsge ?x70262 ?x77794)))
 (let ((?x9897 (ite $x80654 (bvadd (bvsub ?x70262 ?x77794) (_ bv1 32)) (ite $x83604 (bvadd (bvsub ?x70262 ?x72750) (_ bv1 32)) ?x41007))))
 (let ((?x72779 (ite $x24709 (_ bv244 32) (_ bv243 32))))
 (let (($x22152 (bvsge ?x70262 ?x72779)))
 (let ((?x72656 (ite $x24709 (_ bv274 32) (_ bv273 32))))
 (let (($x38155 (bvsge ?x70262 ?x72656)))
 (let ((?x81558 (ite $x38155 (bvadd (bvsub ?x70262 ?x72656) (_ bv1 32)) (ite $x22152 (bvadd (bvsub ?x70262 ?x72779) (_ bv1 32)) ?x9897))))
 (let ((?x69192 (ite $x24709 (_ bv305 32) (_ bv304 32))))
 (let (($x24315 (bvsge ?x70262 ?x69192)))
 (let ((?x69190 (ite $x24709 (_ bv335 32) (_ bv334 32))))
 (let (($x71560 (bvsge ?x70262 ?x69190)))
 (let ((?x3104 (ite $x71560 (bvadd (bvsub ?x70262 ?x69190) (_ bv1 32)) (ite $x24315 (bvadd (bvsub ?x70262 ?x69192) (_ bv1 32)) ?x81558))))
 (let (($x3096 (= (_ bv0 32) (_ bv0 32))))
 (let ((?x5271 (ite $x3096 ?x5074 ?x3104)))
 (= x_plus_day ?x5271))))))))))))))))))))))))))))))))))))))))))))))))))))))))))))))))))))))))))))))))))))))))))))))))))))))))))))))
(assert
 (= y_epoch x_plus_epoch))
(assert
 (not (= y_epoch (_ bv7669 32))))
(check-sat)
